575
1   1   58   71   0 44 45 33 15 37 17 0
1   2   64   79   0 13 41 40 19 42 0
1   3   0    0    0 0
1   4   26   50   0 4 18 0
2   1   62   74   0 14 25 24 6 0
2   2   0    0    0 0
2   3   74   78   0 23 43 7 48 27 0
2   4   24   59   0 46 12 47 0
3   1   4    18   0 49 0
3   2   57   74   0 5 32 1 11 38 0
3   3   0    0    0 0
3   4   49   75   0 10 39 30 34 9 0
4   1   39   69   0 21 50 16 2 29 0
4   2   79   79   0 22 8 26 31 28 3 0
4   3   39   51   0 20 36 35 0
4   4   0    0    0 0